proyfinal/src/viki/013/andrea/andrea-localstore/experimentInOfficeAgust.take6/worker_11/47c99a37-60bf-4226-8a42-d025c25e8de0.als.cnf.out
Reading from standard input... Use '--help' for help.
============================[ Problem Statistics ]=============================
|                                                                             |
|  Number of variables:         87638                                         |
|  Number of clauses:          161767                                         |
|  Parse time:                   0.03 s                                       |
|                                                                             |
============================[ Search Statistics ]==============================
| Conflicts |          ORIGINAL         |          LEARNT          | Progress |
|           |    Vars  Clauses Literals |    Limit  Clauses Lit/Cl |          |
===============================================================================
|       100 |   62354   105032   262533 |    38511      100      9 | 28.850 % |
|       250 |   62327   104999   262445 |    42362      237     22 | 28.881 % |
|       475 |   62309   104867   262097 |    46599      448     75 | 28.902 % |
|       812 |   62300   104823   262007 |    51259      780     81 | 28.912 % |
|      1318 |   62291   104758   261831 |    56385     1254     80 | 28.922 % |
|      2077 |   62291   104758   261831 |    62023     2013     80 | 28.923 % |
|      3216 |   62255   104618   261484 |    68225     3135     90 | 28.963 % |
|      4924 |   62229   104475   261172 |    75048     4599     87 | 28.993 % |
|      7486 |   62229   104475   261172 |    82553     7161     85 | 28.993 % |
===============================================================================
restarts              : 31
conflicts             : 7593           (6828 /sec)
decisions             : 27435          (0.00 % random) (24670 /sec)
propagations          : 11574305       (10408005 /sec)
conflict literals     : 625535         (51.94 % deleted)
Memory used           : 27.39 MB
CPU time              : 1.11206 s

UNSATISFIABLE
